
Gurobi 8.0.1 (win64, Python) logging started 10/14/18 16:07:45

Academic license - for non-commercial use only

Gurobi 8.0.1 (win64, Python) logging started 10/14/18 16:50:20

Academic license - for non-commercial use only

Gurobi 8.0.1 (win64, Python) logging started 10/14/18 16:50:35

Academic license - for non-commercial use only
Optimize a model with 333 rows, 16479 columns and 8973 nonzeros
Variable types: 0 continuous, 16479 integer (16479 binary)
Coefficient statistics:
  Matrix range     [1e+00, 4e+01]
  Objective range  [2e+00, 8e+00]
  Bounds range     [1e+00, 1e+00]
  RHS range        [1e+00, 4e+01]
Presolve removed 141 rows and 13459 columns
Presolve time: 0.00s

Explored 0 nodes (0 simplex iterations) in 0.01 seconds
Thread count was 1 (of 8 available processors)

Solution count 0

Model is infeasible
Best objective -, best bound -, gap -

    Variable            X 
-------------------------
